c 
p cnf 10 40
-8 7 -10 0
9 -7 1 0
2 10 7 0
9 -2 -6 0
8 -2 4 0
10 -2 7 0
-2 -9 -3 0
5 1 -7 0
-4 -10 6 0
-6 8 9 0
6 -8 -9 0
8 -10 9 0
7 -10 -1 0
1 3 -7 0
7 5 9 0
-1 -8 10 0
10 -5 -3 0
6 4 2 0
4 9 10 0
10 -6 -5 0
8 -2 10 0
8 1 -5 0
2 -10 9 0
4 -6 7 0
-10 3 -2 0
-9 -10 -6 0
2 4 -3 0
8 -6 5 0
-3 5 -2 0
5 -3 6 0
-5 6 10 0
-10 7 -5 0
-1 -8 6 0
9 7 -6 0
7 8 1 0
-9 1 -10 0
6 -5 4 0
-3 -10 4 0
3 -7 4 0
-3 5 2 0
